CMD:
./solvers/bin/cadical --plain --no-reduce -t 1600 ./data/cnfs//zipcpu-pfcache-p01/zipcpu-pfcache-p01.72.cnf

c --- [ banner ] -------------------------------------------------------------
c 
c CaDiCaL SAT Solver
c Copyright (c) 2016-2024
c A. Biere, M. Fleury, N. Froleyks, K. Fazekas, F. Pollitt, T. Faller
c JKU Linz, University of Freiburg, TU Wien
c 
c Version 2.1.3 5296d3d2a9bf48c154ab2acb5e44625776d821bf
c g++ (Gentoo 12.3.1_p20230526 p2) 12.3.1 20230526 -Wall -Wextra -O3 -DNDEBUG
c Sat Aug 9 07:26:21 PDT 2025 Linux cedar2.int.cedar.computecanada.ca 5.14.0-362.24.2.el9_3.x86_64 x86_64
c 
c --- [ limit ] --------------------------------------------------------------
c 
c setting time limit to 1600 seconds real time (due to '-t 1600')
c 
c --- [ parsing input ] ------------------------------------------------------
c 
c reading DIMACS file from './data/cnfs//zipcpu-pfcache-p01/zipcpu-pfcache-p01.72.cnf'
c opening file to read './data/cnfs//zipcpu-pfcache-p01/zipcpu-pfcache-p01.72.cnf'
c found 'p cnf 1476420 4408305' header
c parsed 4408305 clauses in 0.68 seconds process time
c 
c --- [ options ] ------------------------------------------------------------
c 
c   --compact=false                (different from default 'true')
c   --decompose=false              (different from default 'true')
c   --deduplicate=false            (different from default 'true')
c   --elim=false                   (different from default 'true')
c   --probe=false                  (different from default 'true')
c   --reduce=false                 (different from default 'true')
c   --subsume=false                (different from default 'true')
c   --ternary=false                (different from default 'true')
c   --transred=false               (different from default 'true')
c   --vivify=false                 (different from default 'true')
c 
c --- [ solving ] ------------------------------------------------------------
c 
c time measured in process time since initialization
c 
c  seconds   reductions  redundant   irredundant
c          MB    restarts       trail         variables
c           level   conflicts       glue            remaining
c 
c *  0.68 677  0 0   0    0    0  0% 0 4376618 1463839 99%
c {  0.87 703  0 0   0    0    0  0% 0 4376618 1463839 99%
c i  0.89 703  1 0   0    1    0  1% 0 4376618 1308032 89%
c i  0.89 703  1 0   0    2    0  6% 0 4376618 1306955 89%
c i  0.92 704 1004 0   0   10    6 16% 2 4376618 1299323 88%
c i  0.99 704 855 0   1   46   33 18% 2 4376618 1299305 88%
c i  1.00 704 582 0   1   67   50 17% 2 4376618 1299065 88%
c i  1.01 704 428 0   1   91   70 17% 2 4376618 1299047 88%
c i  1.03 705 316 0   7  123   95 16% 3 4376618 1298843 88%
c i  1.03 705 314 0   8  124   95 16% 3 4376618 1298825 88%
c i  1.03 705 311 0   8  125   95 16% 2 4376618 1298807 88%
c i  1.03 705 303 0   8  128   97 16% 2 4376618 1298346 88%
c i  1.04 705 293 0   8  135  100 16% 2 4376618 1298335 88%
c i  1.05 705 239 0  11  166  126 16% 3 4376618 1298130 88%
c i  1.09 705 185 0  15  226  174 15% 3 4376618 1297832 88%
c i  1.09 705 172 0  16  245  190 15% 3 4376618 1297620 88%
c i  1.09 705 169 0  17  249  189 15% 3 4376618 1297254 88%
c i  1.10 705 153 0  21  274  213 15% 3 4376618 1296958 88%
c i  1.10 705 136 0  21  308  239 15% 3 4376618 1289812 87%
c i  1.10 705 135 0  21  310  240 15% 3 4376618 1289810 87%
c 
c  seconds    reductions  redundant   irredundant
c          MB     restarts       trail         variables
c            level   conflicts       glue            remaining
c 
c i  1.10 705 132 0  21  315  244 15% 3 4376618 1286454 87%
c }  1.11 705 120 0  21  348  270 15% 2 4376618 1286021 87%
c 0  1.11 705 120 0  21  348  270 15% 2 4376618 1286021 87%
c 
c --- [ result ] -------------------------------------------------------------
c 
s UNSATISFIABLE
c 
c --- [ run-time profiling ] -------------------------------------------------
c 
c process time taken by individual solving procedures
c (percentage relative to process time for solving)
c 
c         0.68  159.22% parse
c         0.43   99.97% search
c         0.24   55.14% unstable
c         0.19   44.82% lucky
c         0.00    0.00% simplify
c   =================================
c         0.43   38.56% solve
c 
c last line shows process time for solving
c (percentage relative to total process time)
c 
c --- [ statistics ] ---------------------------------------------------------
c 
c chronological:               164        47.13 %  of conflicts
c conflicts:                   348       816.15    per second
c decisions:                  2472      5797.48    per second
c fixed:                    190396        12.90 %  of all variables
c learned:                     316        90.80 %  per conflict
c learned_lits:               2742       100.00 %  learned literals
c minimized:                     0         0.00 %  learned literals
c shrunken:                    782        28.52 %  learned literals
c minishrunken:                225         8.21 %  learned literals
c otfs:                          2         0.57 %  of conflict
c propagations:            3555915         8.34 M  per second
c restarts:                     21        16.57    interval
c subsumed:                     25         0.00 %  of all clauses
c strengthened:                  2         0.00 %  of all clauses
c 
c seconds are measured in process time for solving
c 
c --- [ resources ] ----------------------------------------------------------
c 
c total process time since initialization:         1.11    seconds
c total real time since initialization:            1.11    seconds
c maximum resident set size of process:          703.20    MB
c 
c --- [ shutting down ] ------------------------------------------------------
c 
c exit 20
